Grasp exp. instance_n_15_m_5_id_4.lp tipoLifted 0 szPool 5 nIteration 100 alpha 0.6 
Academic license - for non-commercial use only
Read LP format model from file ../input/instancesGenerated/instance_n_15_m_5_id_4.lp
Reading time = 0.00 seconds
: 5 rows, 15 columns, 75 nonzeros
Optimize a model with 5 rows, 15 columns and 75 nonzeros
Variable types: 0 continuous, 15 integer (15 binary)
Coefficient statistics:
  Matrix range     [1e+00, 1e+01]
  Objective range  [1e+00, 1e+01]
  Bounds range     [1e+00, 1e+00]
  RHS range        [3e+01, 4e+01]
Found heuristic solution: objective 41.0000000

Explored 0 nodes (0 simplex iterations) in 0.00 seconds
Thread count was 1 (of 8 available processors)

Solution count 1: 41 
No other solutions better than 0

Solution limit reached
Best objective 4.100000000000e+01, best bound -, gap -
C_1:	 7.00 x_1  = 0.769921 + 4.00 x_2  = 0.000000 + 7.00 x_3  = 0.000000 + 3.00 x_4  = 0.825006 + 1.00 x_5  = 0.000000 + 3.00 x_6  = 1.000000 + 3.00 x_7  = 1.000000 + 9.00 x_8  = 0.000000 + 2.00 x_9  = 0.169101 + 2.00 x_10  = 1.000000 + 10.00 x_11  = 0.000000 + 2.00 x_12  = 0.404817 + 5.00 x_13  = 1.000000 + 6.00 x_14  = 1.000000 + 5.00 x_15  = 1.000000 <= 34.00
C_2:	 6.00 x_1  = 0.769921 + 3.00 x_2  = 0.000000 + 3.00 x_3  = 0.000000 + 3.00 x_4  = 0.825006 + 2.00 x_5  = 0.000000 + 5.00 x_6  = 1.000000 + 3.00 x_7  = 1.000000 + 6.00 x_8  = 0.000000 + 10.00 x_9  = 0.169101 + 4.00 x_10  = 1.000000 + 2.00 x_11  = 0.000000 + 3.00 x_12  = 0.404817 + 2.00 x_13  = 1.000000 + 2.00 x_14  = 1.000000 + 1.00 x_15  = 1.000000 <= 27.00
C_3:	 9.00 x_1  = 0.769921 + 8.00 x_2  = 0.000000 + 6.00 x_3  = 0.000000 + 7.00 x_4  = 0.825006 + 1.00 x_5  = 0.000000 + 6.00 x_6  = 1.000000 + 1.00 x_7  = 1.000000 + 5.00 x_8  = 0.000000 + 4.00 x_9  = 0.169101 + 4.00 x_10  = 1.000000 + 6.00 x_11  = 0.000000 + 4.00 x_12  = 0.404817 + 5.00 x_13  = 1.000000 + 3.00 x_14  = 1.000000 + 1.00 x_15  = 1.000000 <= 35.00
C_4:	 2.00 x_1  = 0.769921 + 8.00 x_2  = 0.000000 + 6.00 x_3  = 0.000000 + 6.00 x_4  = 0.825006 + 2.00 x_5  = 0.000000 + 7.00 x_6  = 1.000000 + 2.00 x_7  = 1.000000 + 4.00 x_8  = 0.000000 + 4.00 x_9  = 0.169101 + 1.00 x_10  = 1.000000 + 8.00 x_11  = 0.000000 + 7.00 x_12  = 0.404817 + 6.00 x_13  = 1.000000 + 1.00 x_14  = 1.000000 + 9.00 x_15  = 1.000000 <= 36.00
C_5:	 6.00 x_1  = 0.769921 + 9.00 x_2  = 0.000000 + 6.00 x_3  = 0.000000 + 1.00 x_4  = 0.825006 + 7.00 x_5  = 0.000000 + 8.00 x_6  = 1.000000 + 6.00 x_7  = 1.000000 + 8.00 x_8  = 0.000000 + 3.00 x_9  = 0.169101 + 1.00 x_10  = 1.000000 + 1.00 x_11  = 0.000000 + 10.00 x_12  = 0.404817 + 6.00 x_13  = 1.000000 + 8.00 x_14  = 1.000000 + 2.00 x_15  = 1.000000 <= 41.00
Solution initial: 59.863951 
Number Constraints Used in Cover:5
GRASP Method!
Number cuts repeat: 0
value: 59.863951
Number Constraints Used in Cover:11
GRASP Method!
Number cuts repeat: 0
value: 59.863951
Number Constraints Used in Cover:21
GRASP Method!
Number cuts repeat: 0
value: 59.863951
Number Constraints Used in Cover:30
GRASP Method!
Number cuts repeat: 0
value: 59.863951
Number Constraints Used in Cover:38
GRASP Method!
Number cuts repeat: 0
value: 59.863951
Number Constraints Used in Cover:44
GRASP Method!
Number cuts repeat: 0
value: 59.863951
Number Constraints Used in Cover:53
GRASP Method!
Number cuts repeat: 0
value: 59.863951
Number Constraints Used in Cover:68
GRASP Method!
Number cuts repeat: 0
value: 59.863951
Number Constraints Used in Cover:77
GRASP Method!
Number cuts repeat: 0
value: 59.863951
Number Constraints Used in Cover:87
GRASP Method!
Number cuts repeat: 0
value: 59.863951
Number Constraints Used in Cover:97
GRASP Method!
Number cuts repeat: 0
value: 59.863951
Number Constraints Used in Cover:98
GRASP Method!
Number cuts repeat: 0
value: 59.863951
Number Constraints Used in Cover:104
GRASP Method!
Number cuts repeat: 0
value: 59.863951
Number Constraints Used in Cover:108
GRASP Method!
Number cuts repeat: 0
value: 59.863951
Number Constraints Used in Cover:110
GRASP Method!
Number cuts repeat: 0
value: 59.863951
Number Constraints Used in Cover:119
GRASP Method!
Number cuts repeat: 0
value: 59.863951
Number Constraints Used in Cover:121
GRASP Method!
Number cuts repeat: 0
value: 59.863951
Number Constraints Used in Cover:125
GRASP Method!
Number cuts repeat: 0
value: 59.863951
Number Constraints Used in Cover:130
GRASP Method!
Number cuts repeat: 0
value: 59.863951
Number Constraints Used in Cover:132
GRASP Method!
Number cuts repeat: 0
value: 59.863951
Number Constraints Used in Cover:136
GRASP Method!
Number cuts repeat: 0
value: 59.863951
Number Constraints Used in Cover:142
GRASP Method!
Number cuts repeat: 0
value: 59.863951
Number Constraints Used in Cover:143
GRASP Method!
Number cuts repeat: 0
value: 59.863951
Number Constraints Used in Cover:147
GRASP Method!
Number cuts repeat: 0
value: 59.863951
Number Constraints Used in Cover:155
GRASP Method!
Number cuts repeat: 0
value: 59.863951
Number Constraints Used in Cover:166
GRASP Method!
Number cuts repeat: 0
value: 59.863951
Number Constraints Used in Cover:176
GRASP Method!
Number cuts repeat: 0
value: 59.863951
Number Constraints Used in Cover:178
GRASP Method!
Number cuts repeat: 0
value: 59.863951
Number Constraints Used in Cover:190
GRASP Method!
Number cuts repeat: 0
value: 59.863951
Number Constraints Used in Cover:199
GRASP Method!
Number cuts repeat: 0
value: 59.863951
Number Constraints Used in Cover:214
GRASP Method!
Number cuts repeat: 0
value: 59.863951
Number Constraints Used in Cover:227
GRASP Method!
Number cuts repeat: 0
value: 59.863951
Number Constraints Used in Cover:234
GRASP Method!
Number cuts repeat: 0
value: 59.863951
Number Constraints Used in Cover:237
GRASP Method!
Number cuts repeat: 0
value: 59.863951
Number Constraints Used in Cover:238
GRASP Method!
Number cuts repeat: 0
value: 59.863951
Number Constraints Used in Cover:243
GRASP Method!
Number cuts repeat: 0
value: 59.863951
Number Constraints Used in Cover:247
GRASP Method!
Number cuts repeat: 0
value: 59.863951
Number Constraints Used in Cover:251
GRASP Method!
Number cuts repeat: 0
value: 59.863951
Number Constraints Used in Cover:255
GRASP Method!
Number cuts repeat: 0
value: 59.863951
Number Constraints Used in Cover:258
GRASP Method!
Number cuts repeat: 0
value: 59.863951
Number Constraints Used in Cover:259
GRASP Method!
Number cuts repeat: 0
value: 59.863951
Number Constraints Used in Cover:263
GRASP Method!
Number cuts repeat: 0
value: 59.863951
Number Constraints Used in Cover:269
GRASP Method!
Number cuts repeat: 0
value: 59.863951
Number Constraints Used in Cover:271
GRASP Method!
Number cuts repeat: 0
value: 59.863951
Number Constraints Used in Cover:279
GRASP Method!
Number cuts repeat: 0
value: 59.863951
Number Constraints Used in Cover:282
GRASP Method!
Number cuts repeat: 0
value: 59.863951
Number Constraints Used in Cover:285
GRASP Method!
Number cuts repeat: 0
value: 59.863951
Number Constraints Used in Cover:286
GRASP Method!
Number cuts repeat: 0
value: 59.863951
Number Constraints Used in Cover:291
GRASP Method!
Number cuts repeat: 0
value: 59.863951
Number Constraints Used in Cover:298
GRASP Method!
Number cuts repeat: 0
value: 59.863951
Number Constraints Used in Cover:303
GRASP Method!
Number cuts repeat: 0
value: 59.863951
Number Constraints Used in Cover:313
GRASP Method!
Number cuts repeat: 0
value: 59.863951
Number Constraints Used in Cover:326
GRASP Method!
Number cuts repeat: 0
value: 59.863951
Number Constraints Used in Cover:333
GRASP Method!
Number cuts repeat: 0
value: 59.863951
Number Constraints Used in Cover:339
GRASP Method!
Number cuts repeat: 0
value: 59.863951
Number Constraints Used in Cover:348
GRASP Method!
Number cuts repeat: 0
value: 59.863951
Number Constraints Used in Cover:364
GRASP Method!
Number cuts repeat: 0
value: 59.863951
Number Constraints Used in Cover:368
GRASP Method!
Number cuts repeat: 0
value: 59.863951
Number Constraints Used in Cover:376
GRASP Method!
Number cuts repeat: 0
value: 59.863951
Number Constraints Used in Cover:384
GRASP Method!
Number cuts repeat: 0
value: 59.863951
Number Constraints Used in Cover:393
GRASP Method!
Number cuts repeat: 0
value: 59.863951
Number Constraints Used in Cover:394
GRASP Method!
Number cuts repeat: 0
value: 59.863951
Number Constraints Used in Cover:396
GRASP Method!
Number cuts repeat: 0
value: 59.863951
Number Constraints Used in Cover:401
GRASP Method!
Number cuts repeat: 0
value: 59.863951
Number Constraints Used in Cover:405
GRASP Method!
Number cuts repeat: 0
value: 59.863951
Number Constraints Used in Cover:413
GRASP Method!
Number cuts repeat: 0
value: 59.863951
Number Constraints Used in Cover:415
GRASP Method!
Number cuts repeat: 0
value: 59.863951
Number Constraints Used in Cover:420
GRASP Method!
Number cuts repeat: 0
value: 59.863951
Number Constraints Used in Cover:424
GRASP Method!
Number cuts repeat: 0
value: 59.863951
Number Constraints Used in Cover:430
GRASP Method!
Number cuts repeat: 0
value: 59.863951
Number Constraints Used in Cover:435
GRASP Method!
Number cuts repeat: 0
value: 59.863951
Number Constraints Used in Cover:442
GRASP Method!
Number cuts repeat: 0
value: 59.863951
Number Constraints Used in Cover:445
GRASP Method!
Number cuts repeat: 0
value: 59.863951
Number Constraints Used in Cover:451
GRASP Method!
Number cuts repeat: 0
value: 59.863951
Number Constraints Used in Cover:455
GRASP Method!
Number cuts repeat: 0
value: 59.863951
Number Constraints Used in Cover:463
GRASP Method!
Number cuts repeat: 0
value: 59.863951
Number Constraints Used in Cover:470
GRASP Method!
Number cuts repeat: 0
value: 59.863951
Number Constraints Used in Cover:474
GRASP Method!
Number cuts repeat: 0
value: 59.863951
Number Constraints Used in Cover:476
GRASP Method!
Number cuts repeat: 0
value: 59.863951
Number Constraints Used in Cover:481
GRASP Method!
Number cuts repeat: 0
value: 59.863951
Number Constraints Used in Cover:483
GRASP Method!
Number cuts repeat: 0
value: 59.863951
Number Constraints Used in Cover:487
GRASP Method!
Number cuts repeat: 0
value: 59.863951
Number Constraints Used in Cover:494
GRASP Method!
Number cuts repeat: 0
value: 59.863951
Number Constraints Used in Cover:502
GRASP Method!
Number cuts repeat: 0
value: 59.863951
Number Constraints Used in Cover:505
GRASP Method!
Number cuts repeat: 0
value: 59.863951
Number Constraints Used in Cover:506
GRASP Method!
Number cuts repeat: 0
value: 59.863951
Number Constraints Used in Cover:509
GRASP Method!
Number cuts repeat: 0
value: 59.863951
Number Constraints Used in Cover:513
GRASP Method!
Number cuts repeat: 0
value: 59.863951
Number Constraints Used in Cover:518
GRASP Method!
Number cuts repeat: 0
value: 59.863951
Number Constraints Used in Cover:523
GRASP Method!
Number cuts repeat: 0
value: 59.863951
Number Constraints Used in Cover:524
GRASP Method!
Number cuts repeat: 0
value: 59.863951
Number Constraints Used in Cover:526
GRASP Method!
Number cuts repeat: 0
value: 59.863951
Number Constraints Used in Cover:528
GRASP Method!
Number cuts repeat: 0
value: 59.863951
Number Constraints Used in Cover:531
GRASP Method!
Number cuts repeat: 0
value: 59.863951
Number Constraints Used in Cover:535
GRASP Method!
Number cuts repeat: 0
value: 59.863951
Number Constraints Used in Cover:537
GRASP Method!
Number cuts repeat: 0
value: 59.863951
Number Constraints Used in Cover:537
GRASP Method!
Number cuts repeat: 0
value: 59.863951
Number Constraints Used in Cover:537
GRASP Method!
Number cuts repeat: 0
value: 59.863951
Number Constraints Used in Cover:539
GRASP Method!
Number cuts repeat: 0
value: 59.863951
Number Constraints Used in Cover:541
GRASP Method!
Number cuts repeat: 0
value: 59.863951
Number Constraints Used in Cover:541
GRASP Method!
Number cuts repeat: 0
value: 59.863951
Number Constraints Used in Cover:547
GRASP Method!
Number cuts repeat: 0
value: 59.863951
Number Constraints Used in Cover:547
GRASP Method!
Number cuts repeat: 0
value: 59.863951
Number Constraints Used in Cover:550
GRASP Method!
Number cuts repeat: 0
value: 59.863951
Number Constraints Used in Cover:550
GRASP Method!
Number cuts repeat: 0
value: 59.863951
Number Constraints Used in Cover:551
GRASP Method!
Number cuts repeat: 0
value: 59.863951
Number Constraints Used in Cover:556
GRASP Method!
Number cuts repeat: 0
value: 59.863951
Number Constraints Used in Cover:559
GRASP Method!
Number cuts repeat: 0
value: 59.863951
Number Constraints Used in Cover:560
GRASP Method!
Number cuts repeat: 0
value: 59.863951
Number Constraints Used in Cover:563
GRASP Method!
Number cuts repeat: 0
value: 59.863951
Number Constraints Used in Cover:563
GRASP Method!
Number cuts repeat: 0
value: 59.863951
Number Constraints Used in Cover:565
GRASP Method!
Number cuts repeat: 0
value: 59.863951
Number Constraints Used in Cover:567
GRASP Method!
Number cuts repeat: 0
value: 59.863951
Number Constraints Used in Cover:567
GRASP Method!
Number cuts repeat: 0
value: 59.863951
Number Constraints Used in Cover:568
GRASP Method!
Number cuts repeat: 0
value: 59.863951
Number Constraints Used in Cover:570
GRASP Method!
Number cuts repeat: 0
value: 59.863951
Number Constraints Used in Cover:570
GRASP Method!
Number cuts repeat: 0
value: 59.863951
Number Constraints Used in Cover:576
GRASP Method!
Number cuts repeat: 0
value: 59.863951
Number Constraints Used in Cover:580
GRASP Method!
Number cuts repeat: 0
value: 59.863951
Number Constraints Used in Cover:580
GRASP Method!
Number cuts repeat: 0
value: 59.863951
Number Constraints Used in Cover:583
GRASP Method!
Number cuts repeat: 0
value: 59.863951
Number Constraints Used in Cover:584
GRASP Method!
Number cuts repeat: 0
value: 59.863951
Number Constraints Used in Cover:586
GRASP Method!
Number cuts repeat: 0
value: 59.863951
Number Constraints Used in Cover:591
GRASP Method!
Number cuts repeat: 0
value: 59.863951
Number Cuts Final: 591
